<?xml version = "1.0" standalone="yes"?>
<!-- This file has been generated by DOcplex version 2.23.222  -->
<CPLEXSolution version="1.0">
 <header
   problemName="CVRP"
   objectiveValue="14913.6"
  />
 <variables>
  <variable name="x_0_1" index="0" value="1.00000"/>
  <variable name="x_0_2" index="1" value="1.00000"/>
  <variable name="x_0_3" index="2" value="1.00000"/>
  <variable name="x_0_5" index="4" value="1.00000"/>
  <variable name="x_0_6" index="5" value="1.00000"/>
  <variable name="x_0_7" index="6" value="1.00000"/>
  <variable name="x_0_8" index="7" value="1.00000"/>
  <variable name="x_0_9" index="8" value="1.00000"/>
  <variable name="x_0_11" index="10" value="1.00000"/>
  <variable name="x_0_12" index="11" value="1.00000"/>
  <variable name="x_0_13" index="12" value="1.00000"/>
  <variable name="x_0_15" index="14" value="1.00000"/>
  <variable name="x_0_17" index="16" value="1.00000"/>
  <variable name="x_0_20" index="19" value="1.00000"/>
  <variable name="x_0_28" index="27" value="1.00000"/>
  <variable name="x_0_29" index="28" value="1.00000"/>
  <variable name="x_1_22" index="50" value="1.00000"/>
  <variable name="x_2_0" index="58" value="1.00000"/>
  <variable name="x_3_19" index="105" value="1.00000"/>
  <variable name="x_4_0" index="116" value="1.00000"/>
  <variable name="x_5_25" index="169" value="1.00000"/>
  <variable name="x_6_10" index="183" value="1.00000"/>
  <variable name="x_7_23" index="225" value="1.00000"/>
  <variable name="x_8_0" index="232" value="1.00000"/>
  <variable name="x_9_0" index="261" value="1.00000"/>
  <variable name="x_10_0" index="290" value="1.00000"/>
  <variable name="x_11_21" index="339" value="1.00000"/>
  <variable name="x_12_0" index="348" value="1.00000"/>
  <variable name="x_13_0" index="377" value="1.00000"/>
  <variable name="x_14_0" index="406" value="1.00000"/>
  <variable name="x_15_0" index="435" value="1.00000"/>
  <variable name="x_16_18" index="481" value="1.00000"/>
  <variable name="x_17_26" index="518" value="1.00000"/>
  <variable name="x_18_0" index="522" value="1.00000"/>
  <variable name="x_19_0" index="551" value="1.00000"/>
  <variable name="x_20_16" index="596" value="1.00000"/>
  <variable name="x_21_0" index="609" value="1.00000"/>
  <variable name="x_22_14" index="652" value="1.00000"/>
  <variable name="x_23_0" index="667" value="1.00000"/>
  <variable name="x_24_4" index="700" value="1.00000"/>
  <variable name="x_25_0" index="725" value="1.00000"/>
  <variable name="x_26_24" index="778" value="1.00000"/>
  <variable name="x_27_0" index="783" value="1.00000"/>
  <variable name="x_28_27" index="839" value="1.00000"/>
  <variable name="x_29_0" index="841" value="1.00000"/>
  <variable name="u_1" index="870" value="10.00000"/>
  <variable name="u_2" index="871" value="16.00000"/>
  <variable name="u_3" index="872" value="12.00000"/>
  <variable name="u_4" index="873" value="24.00000"/>
  <variable name="u_5" index="874" value="3.00000"/>
  <variable name="u_6" index="875" value="14.00000"/>
  <variable name="u_7" index="876" value="3.00000"/>
  <variable name="u_8" index="877" value="17.00000"/>
  <variable name="u_9" index="878" value="18.00000"/>
  <variable name="u_10" index="879" value="24.00000"/>
  <variable name="u_11" index="880" value="9.00000"/>
  <variable name="u_12" index="881" value="12.00000"/>
  <variable name="u_13" index="882" value="16.00000"/>
  <variable name="u_14" index="883" value="22.00000"/>
  <variable name="u_15" index="884" value="24.00000"/>
  <variable name="u_16" index="885" value="17.00000"/>
  <variable name="u_17" index="886" value="1.00000"/>
  <variable name="u_18" index="887" value="24.00000"/>
  <variable name="u_19" index="888" value="24.00000"/>
  <variable name="u_20" index="889" value="8.00000"/>
  <variable name="u_21" index="890" value="24.00000"/>
  <variable name="u_22" index="891" value="21.00000"/>
  <variable name="u_23" index="892" value="24.00000"/>
  <variable name="u_24" index="893" value="19.00000"/>
  <variable name="u_25" index="894" value="23.00000"/>
  <variable name="u_26" index="895" value="10.00000"/>
  <variable name="u_27" index="896" value="24.00000"/>
  <variable name="u_28" index="897" value="10.00000"/>
  <variable name="u_29" index="898" value="18.00000"/>
 </variables>
</CPLEXSolution>
